feasible solution found by trivial heuristic after 2.9 seconds, objective value -8.455447e+07
presolving:
(round 1, fast)       262585 del vars, 268165 del conss, 0 add conss, 0 chg bounds, 11160 chg sides, 5580 chg coeffs, 0 upgd conss, 0 impls, 2962 clqs
   (7.4s) running MILP presolver
   (8.3s) MILP presolver (76 rounds): 0 aggregations, 4560 fixings, 0 bound changes
(round 2, medium)     267145 del vars, 276709 del conss, 2976 add conss, 0 chg bounds, 11160 chg sides, 5580 chg coeffs, 0 upgd conss, 0 impls, 2962 clqs
(round 3, exhaustive) 267145 del vars, 276709 del conss, 2976 add conss, 0 chg bounds, 11160 chg sides, 5580 chg coeffs, 2974 upgd conss, 0 impls, 3425 clqs
(round 4, medium)     267151 del vars, 276721 del conss, 2976 add conss, 0 chg bounds, 11160 chg sides, 5580 chg coeffs, 2974 upgd conss, 0 impls, 3425 clqs
(round 5, fast)       268165 del vars, 276723 del conss, 2976 add conss, 1014 chg bounds, 11160 chg sides, 5580 chg coeffs, 2974 upgd conss, 0 impls, 2962 clqs
   (8.4s) running MILP presolver
   (8.4s) MILP presolver found nothing
   (8.6s) probing: 51/168 (30.4%) - 0 fixings, 0 aggregations, 0 implications, 0 bound changes
   (8.6s) probing aborted: 50/50 successive totally useless probings
   (8.6s) symmetry computation started: requiring (bin +, int -, cont +), (fixed: bin -, int +, cont -)
   (8.6s) no symmetry present
presolving (6 rounds: 6 fast, 4 medium, 2 exhaustive):
 268165 deleted vars, 276723 deleted constraints, 2976 added constraints, 1014 tightened bounds, 0 added holes, 11160 changed sides, 5580 changed coefficients
 0 implications, 2962 cliques
presolved problem has 168 variables (168 bin, 0 int, 0 impl, 0 cont) and 2962 constraints
   2962 constraints of type <setppc>
Presolving Time: 6.36
transformed 1/1 original solutions to the transformed problem space

 time | node  | left  |LP iter|LP it/n|mem/heur|mdpt |vars |cons |rows |cuts |sepa|confs|strbr|  dualbound   | primalbound  |  gap   | compl. 
p12.4s|     1 |     0 |     0 |     - |  clique|   0 | 168 |2962 |2962 |   0 |  0 |   0 |   0 |-8.311810e+07 |-8.436855e+07 |   1.50%| unknown
p12.4s|     1 |     0 |     0 |     - |   locks|   0 | 168 |2962 |2962 |   0 |  0 |   0 |   0 |-8.311810e+07 |-8.436814e+07 |   1.50%| unknown
i12.6s|     1 |     0 |    43 |     - |  oneopt|   0 | 168 |2962 |2962 |   0 |  0 |   0 |   0 |-8.311810e+07 |-8.436048e+07 |   1.49%| unknown
 12.7s|     1 |     0 |  1015 |     - |   824M |   0 | 168 |2962 |2962 |   0 |  0 |   0 |   0 |-8.419322e+07 |-8.436048e+07 |   0.20%| unknown
 12.8s|     1 |     0 |  1160 |     - |   825M |   0 | 168 |2962 |2963 |   1 |  1 |   0 |   0 |-8.419406e+07 |-8.436048e+07 |   0.20%| unknown
 12.9s|     1 |     0 |  1299 |     - |   826M |   0 | 168 |2962 |2964 |   2 |  2 |   0 |   0 |-8.419471e+07 |-8.436048e+07 |   0.20%| unknown
 13.0s|     1 |     0 |  1403 |     - |   826M |   0 | 168 |2962 |2965 |   3 |  3 |   0 |   0 |-8.419503e+07 |-8.436048e+07 |   0.20%| unknown
 13.1s|     1 |     0 |  1585 |     - |   829M |   0 | 168 |2962 |2966 |   4 |  4 |   0 |   0 |-8.419545e+07 |-8.436048e+07 |   0.20%| unknown
 13.2s|     1 |     0 |  1671 |     - |   829M |   0 | 168 |2962 |2967 |   5 |  5 |   0 |   0 |-8.419556e+07 |-8.436048e+07 |   0.20%| unknown
 13.3s|     1 |     0 |  1793 |     - |   831M |   0 | 168 |2962 |2968 |   6 |  6 |   0 |   0 |-8.419567e+07 |-8.436048e+07 |   0.20%| unknown
 13.5s|     1 |     0 |  1985 |     - |   832M |   0 | 168 |2962 |2969 |   7 |  7 |   0 |   0 |-8.419580e+07 |-8.436048e+07 |   0.20%| unknown
 13.6s|     1 |     0 |  2148 |     - |   833M |   0 | 168 |2962 |2970 |   8 |  8 |   0 |   0 |-8.419590e+07 |-8.436048e+07 |   0.20%| unknown
 13.7s|     1 |     0 |  2268 |     - |   834M |   0 | 168 |2962 |2972 |  10 |  9 |   0 |   0 |-8.419597e+07 |-8.436048e+07 |   0.20%| unknown
 13.9s|     1 |     0 |  2395 |     - |   836M |   0 | 168 |2962 |2973 |  11 | 10 |   0 |   0 |-8.419607e+07 |-8.436048e+07 |   0.20%| unknown
 14.0s|     1 |     0 |  2577 |     - |   836M |   0 | 168 |2962 |2975 |  13 | 11 |   0 |   0 |-8.419627e+07 |-8.436048e+07 |   0.20%| unknown
 time | node  | left  |LP iter|LP it/n|mem/heur|mdpt |vars |cons |rows |cuts |sepa|confs|strbr|  dualbound   | primalbound  |  gap   | compl. 
 14.0s|     1 |     0 |  2683 |     - |   836M |   0 | 168 |2962 |2979 |  17 | 12 |   0 |   0 |-8.419638e+07 |-8.436048e+07 |   0.19%| unknown
 14.1s|     1 |     0 |  2758 |     - |   837M |   0 | 168 |2962 |2980 |  18 | 13 |   0 |   0 |-8.419645e+07 |-8.436048e+07 |   0.19%| unknown
 14.2s|     1 |     0 |  2785 |     - |   837M |   0 | 168 |2962 |2981 |  19 | 14 |   0 |   0 |-8.419645e+07 |-8.436048e+07 |   0.19%| unknown
 14.3s|     1 |     0 |  2878 |     - |   837M |   0 | 168 |2962 |2983 |  21 | 15 |   0 |   0 |-8.419668e+07 |-8.436048e+07 |   0.19%| unknown
d14.5s|     1 |     0 |  4007 |     - |farkasdi|   0 | 168 |2962 |2983 |   0 | 17 |   0 |   0 |-8.419668e+07 |-8.430054e+07 |   0.12%| unknown
 14.6s|     1 |     0 |  4007 |     - |   838M |   0 | 168 |2962 |2983 |  21 | 17 |   0 |   0 |-8.419668e+07 |-8.430054e+07 |   0.12%| unknown
 14.6s|     1 |     0 |  4048 |     - |   838M |   0 | 168 |2962 |2984 |  22 | 18 |   0 |   0 |-8.419671e+07 |-8.430054e+07 |   0.12%| unknown
 20.3s|     1 |     2 |  4048 |     - |   838M |   0 | 168 |2962 |2984 |  22 | 19 |   0 |  36 |-8.420083e+07 |-8.430054e+07 |   0.12%| unknown
*23.4s|     5 |     4 |  5338 | 615.5 |strongbr|   4 | 168 |2962 |2978 |  22 |  1 |   0 |  93 |-8.420083e+07 |-8.429321e+07 |   0.11%| unknown
*33.3s|    13 |     4 |  8936 | 505.0 |strongbr|   5 | 168 |2984 |2978 |  22 |  6 |  22 | 281 |-8.420473e+07 |-8.428589e+07 |   0.10%|  21.43%
 45.2s|   100 |    11 | 19411 | 167.0 |   840M |  13 | 168 |2998 |2978 |  37 |  0 |  36 | 431 |-8.421464e+07 |-8.428589e+07 |   0.08%|  39.84%
 52.7s|   200 |    13 | 33056 | 151.7 |   847M |  17 | 168 |3019 |2985 |  98 |  6 |  57 | 470 |-8.422163e+07 |-8.428589e+07 |   0.08%|  43.20%
L53.2s|   213 |    12 | 33762 | 145.7 |    rins|  17 | 168 |3019 |2988 |  98 |  1 |  57 | 470 |-8.422163e+07 |-8.428383e+07 |   0.07%|  43.24%
 56.8s|   300 |    11 | 42448 | 132.3 |   849M |  21 | 168 |3023 |2986 | 125 |  0 |  61 | 482 |-8.422516e+07 |-8.428383e+07 |   0.07%|  49.39%
 61.1s|   400 |    15 | 55495 | 131.9 |   849M |  22 | 168 |3038 |2987 | 145 |  1 |  76 | 526 |-8.424092e+07 |-8.428383e+07 |   0.05%|  56.16%
 time | node  | left  |LP iter|LP it/n|mem/heur|mdpt |vars |cons |rows |cuts |sepa|confs|strbr|  dualbound   | primalbound  |  gap   | compl. 
 64.0s|   500 |     9 | 64057 | 122.6 |   851M |  26 | 168 |3048 |2978 | 154 |  0 |  94 | 564 |-8.424092e+07 |-8.428383e+07 |   0.05%|  65.57%
 69.1s|   600 |     7 | 75346 | 121.0 |   851M |  26 | 168 |3087 |2983 | 173 |  1 | 138 | 640 |-8.424985e+07 |-8.428383e+07 |   0.04%|  84.18%

SCIP Status        : problem is solved [optimal solution found]
Solving Time (sec) : 72.02
Solving Nodes      : 683
Primal Bound       : -8.42838327986529e+07 (262 solutions)
Dual Bound         : -8.42838327986529e+07
Gap                : 0.00 %
Solve Status: optimal
Solve Time: 78.25 seconds
